; benchmark generated from python API
(set-info :status unknown)
(declare-fun x_month () Int)
(declare-fun x_day () Int)
(declare-fun x_year () Int)
(assert
 (>= x_month 1))
(assert
 (<= x_month 12))
(assert
 (>= x_day 1))
(assert
 (<= x_day 31))
(assert
 (let (($x175 (<= x_day 28)))
 (let (($x420 (<= x_day 29)))
 (let (($x49 (= (mod x_year 400) 0)))
 (let (($x567 (= (mod x_year 4) 0)))
 (let (($x132 (ite (or (and $x567 (and (distinct (mod x_year 100) 0) true)) $x49) $x420 $x175)))
 (let (($x150 (= x_month 2)))
 (ite $x150 $x132 true))))))))
(assert
 (let (($x240 (<= x_day 30)))
 (let (($x678 (or (= x_month 4) (= x_month 6) (= x_month 9) (= x_month 11))))
 (ite $x678 $x240 true))))
(assert
 (let (($x621 (= x_year 2023)))
 (let (($x674 (and $x621 (or (> x_month 1) (and (= x_month 1) (>= x_day 1))))))
 (or (> x_year 2023) $x674))))
(assert
 (let ((?x286 (+ (mod (- (+ x_month (+ (* 0 12) 0)) 1) 12) 1)))
(let ((?x429 (ite (or (= ?x286 4) (= ?x286 6) (= ?x286 9) (= ?x286 11)) 30 31)))
(let ((?x272 (+ 0 (div (- (+ x_month (+ (* 0 12) 0)) 1) 12))))
(let ((?x45 (+ x_year ?x272)))
(let (($x555 (or (and (= (mod ?x45 4) 0) (and (distinct (mod ?x45 100) 0) true)) (= (mod ?x45 400) 0))))
(let ((?x319 (ite (= ?x286 2) (ite $x555 29 28) ?x429)))
(let (($x467 (< x_day 1)))
(let ((?x646 (ite $x467 1 (ite (> x_day ?x319) ?x319 x_day))))
(let ((?x530 (ite (< ?x646 1) 1 (ite (> ?x646 ?x319) ?x319 ?x646))))
(let ((?x30 (ite (= 2 ?x286) (ite $x555 31 31) (ite (= 1 ?x286) (ite $x555 0 0) 0))))
(let ((?x250 (ite (= 4 ?x286) (ite $x555 91 90) (ite (= 3 ?x286) (ite $x555 60 59) ?x30))))
(let ((?x498 (ite (= 6 ?x286) (ite $x555 152 151) (ite (= 5 ?x286) (ite $x555 121 120) ?x250))))
(let ((?x490 (ite (= 8 ?x286) (ite $x555 213 212) (ite (= 7 ?x286) (ite $x555 182 181) ?x498))))
(let ((?x165 (ite (= 10 ?x286) (ite $x555 274 273) (ite (= 9 ?x286) (ite $x555 244 243) ?x490))))
(let ((?x760 (ite (= 12 ?x286) (ite $x555 335 334) (ite (= 11 ?x286) (ite $x555 305 304) ?x165))))
(let ((?x285 (- (+ (* 365 (- ?x45 1)) (div (- ?x45 1) 4)) (div (- ?x45 1) 100))))
(let ((?x712 (- (+ (+ (+ ?x285 (div (- ?x45 1) 400)) ?x760) (- ?x530 1)) 730179)))
(let ((?x721 (+ (+ ?x712 31) 730179)))
(let ((?x771 (mod ?x721 146097)))
(let ((?x688 (div ?x771 36524)))
(let ((?x702 (ite (<= 4 ?x688) 3 ?x688)))
(let ((?x322 (- ?x771 (* ?x702 36524))))
(let ((?x538 (mod ?x322 1461)))
(let ((?x396 (div ?x538 365)))
(let ((?x292 (ite (<= 4 ?x396) 3 ?x396)))
(let ((?x543 (+ (+ (* (div ?x721 146097) 400) (* ?x702 100)) (* (div ?x322 1461) 4))))
(let ((?x432 (+ (+ ?x543 ?x292) 1)))
(let (($x1856 (or (and (= (mod ?x432 4) 0) (and (distinct (mod ?x432 100) 0) true)) (= (mod ?x432 400) 0))))
(let ((?x532 (- ?x538 (* ?x292 365))))
(let ((?x1140 (ite $x1856 31 31)))
(let (($x340 (>= ?x532 ?x1140)))
(let ((?x772 (ite $x340 (+ (- ?x532 ?x1140) 1) (+ (- ?x532 (ite $x1856 0 0)) 1))))
(let ((?x1253 (ite $x1856 60 59)))
(let (($x435 (>= ?x532 ?x1253)))
(let ((?x2958 (ite $x1856 91 90)))
(let (($x400 (>= ?x532 ?x2958)))
(let ((?x658 (ite $x400 (+ (- ?x532 ?x2958) 1) (ite $x435 (+ (- ?x532 ?x1253) 1) ?x772))))
(let ((?x2429 (ite $x1856 121 120)))
(let (($x434 (>= ?x532 ?x2429)))
(let ((?x2372 (ite $x1856 152 151)))
(let (($x469 (>= ?x532 ?x2372)))
(let ((?x810 (ite $x469 (+ (- ?x532 ?x2372) 1) (ite $x434 (+ (- ?x532 ?x2429) 1) ?x658))))
(let ((?x3122 (ite $x1856 182 181)))
(let (($x466 (>= ?x532 ?x3122)))
(let ((?x2483 (ite $x1856 213 212)))
(let (($x354 (>= ?x532 ?x2483)))
(let ((?x774 (ite $x354 (+ (- ?x532 ?x2483) 1) (ite $x466 (+ (- ?x532 ?x3122) 1) ?x810))))
(let ((?x2534 (ite $x1856 244 243)))
(let (($x7 (>= ?x532 ?x2534)))
(let ((?x1900 (ite $x1856 274 273)))
(let (($x809 (>= ?x532 ?x1900)))
(let ((?x406 (ite $x809 (+ (- ?x532 ?x1900) 1) (ite $x7 (+ (- ?x532 ?x2534) 1) ?x774))))
(let ((?x458 (ite $x1856 305 304)))
(let (($x2601 (>= ?x532 ?x458)))
(let ((?x547 (ite $x1856 335 334)))
(let (($x714 (>= ?x532 ?x547)))
(let ((?x2175 (ite $x714 (+ (- ?x532 ?x547) 1) (ite $x2601 (+ (- ?x532 ?x458) 1) ?x406))))
(let (($x479 (= 0 31)))
(let ((?x650 (+ (mod (- (+ x_month (+ (* 0 12) 1)) 1) 12) 1)))
(let ((?x135 (ite (or (= ?x650 4) (= ?x650 6) (= ?x650 9) (= ?x650 11)) 30 31)))
(let ((?x599 (+ 0 (div (- (+ x_month (+ (* 0 12) 1)) 1) 12))))
(let ((?x271 (+ x_year ?x599)))
(let (($x633 (or (and (= (mod ?x271 4) 0) (and (distinct (mod ?x271 100) 0) true)) (= (mod ?x271 400) 0))))
(let ((?x422 (ite (= ?x650 2) (ite $x633 29 28) ?x135)))
(let ((?x667 (ite $x467 1 (ite (> x_day ?x422) ?x422 x_day))))
(let ((?x464 (ite (< ?x667 1) 1 (ite (> ?x667 ?x422) ?x422 ?x667))))
(let ((?x191 (ite (= 2 ?x650) (ite $x633 31 31) (ite (= 1 ?x650) (ite $x633 0 0) 0))))
(let ((?x94 (ite (= 4 ?x650) (ite $x633 91 90) (ite (= 3 ?x650) (ite $x633 60 59) ?x191))))
(let ((?x40 (ite (= 6 ?x650) (ite $x633 152 151) (ite (= 5 ?x650) (ite $x633 121 120) ?x94))))
(let ((?x295 (ite (= 8 ?x650) (ite $x633 213 212) (ite (= 7 ?x650) (ite $x633 182 181) ?x40))))
(let ((?x261 (ite (= 10 ?x650) (ite $x633 274 273) (ite (= 9 ?x650) (ite $x633 244 243) ?x295))))
(let ((?x32 (ite (= 12 ?x650) (ite $x633 335 334) (ite (= 11 ?x650) (ite $x633 305 304) ?x261))))
(let ((?x167 (- (+ (* 365 (- ?x271 1)) (div (- ?x271 1) 4)) (div (- ?x271 1) 100))))
(let ((?x97 (- (+ (+ (+ ?x167 (div (- ?x271 1) 400)) ?x32) (- ?x464 1)) 730179)))
(let ((?x112 (+ (+ ?x97 0) 730179)))
(let ((?x390 (mod ?x112 146097)))
(let ((?x110 (div ?x390 36524)))
(let ((?x613 (ite (<= 4 ?x110) 3 ?x110)))
(let ((?x503 (- ?x390 (* ?x613 36524))))
(let ((?x316 (mod ?x503 1461)))
(let ((?x492 (div ?x316 365)))
(let ((?x477 (ite (<= 4 ?x492) 3 ?x492)))
(let ((?x333 (+ (+ (* (div ?x112 146097) 400) (* ?x613 100)) (* (div ?x503 1461) 4))))
(let ((?x70 (+ (+ ?x333 ?x477) 1)))
(let (($x397 (or (and (= (mod ?x70 4) 0) (and (distinct (mod ?x70 100) 0) true)) (= (mod ?x70 400) 0))))
(let ((?x482 (- ?x316 (* ?x477 365))))
(let ((?x247 (ite $x397 31 31)))
(let (($x289 (>= ?x482 ?x247)))
(let ((?x134 (ite $x289 (+ (- ?x482 ?x247) 1) (+ (- ?x482 (ite $x397 0 0)) 1))))
(let ((?x592 (ite $x397 60 59)))
(let (($x321 (>= ?x482 ?x592)))
(let ((?x417 (ite $x397 91 90)))
(let (($x505 (>= ?x482 ?x417)))
(let ((?x570 (ite $x505 (+ (- ?x482 ?x417) 1) (ite $x321 (+ (- ?x482 ?x592) 1) ?x134))))
(let ((?x120 (ite $x397 121 120)))
(let (($x327 (>= ?x482 ?x120)))
(let ((?x349 (ite $x397 152 151)))
(let (($x427 (>= ?x482 ?x349)))
(let ((?x513 (ite $x427 (+ (- ?x482 ?x349) 1) (ite $x327 (+ (- ?x482 ?x120) 1) ?x570))))
(let ((?x421 (ite $x397 182 181)))
(let (($x2899 (>= ?x482 ?x421)))
(let ((?x11 (ite $x397 213 212)))
(let (($x474 (>= ?x482 ?x11)))
(let ((?x263 (ite $x474 (+ (- ?x482 ?x11) 1) (ite $x2899 (+ (- ?x482 ?x421) 1) ?x513))))
(let ((?x205 (ite $x397 244 243)))
(let (($x149 (>= ?x482 ?x205)))
(let ((?x350 (ite $x397 274 273)))
(let (($x444 (>= ?x482 ?x350)))
(let ((?x520 (ite $x444 (+ (- ?x482 ?x350) 1) (ite $x149 (+ (- ?x482 ?x205) 1) ?x263))))
(let ((?x343 (ite $x397 305 304)))
(let (($x553 (>= ?x482 ?x343)))
(let ((?x1015 (ite $x397 335 334)))
(let (($x581 (>= ?x482 ?x1015)))
(let ((?x12 (ite $x581 (+ (- ?x482 ?x1015) 1) (ite $x553 (+ (- ?x482 ?x343) 1) ?x520))))
(let (($x507 (= 0 0)))
(let ((?x552 (ite $x434 5 (ite $x400 4 (ite $x435 3 (ite $x340 2 1))))))
(let ((?x2594 (ite $x7 9 (ite $x354 8 (ite $x466 7 (ite $x469 6 ?x552))))))
(let ((?x731 (ite $x714 12 (ite $x2601 11 (ite $x809 10 ?x2594)))))
(let ((?x98 (ite $x479 ?x286 ?x731)))
(let ((?x332 (ite $x327 5 (ite $x505 4 (ite $x321 3 (ite $x289 2 1))))))
(let ((?x451 (ite $x149 9 (ite $x474 8 (ite $x2899 7 (ite $x427 6 ?x332))))))
(let ((?x423 (ite $x507 ?x650 (ite $x581 12 (ite $x553 11 (ite $x444 10 ?x451))))))
(let (($x662 (or (< ?x423 ?x98) (and (= ?x423 ?x98) (<= (ite $x507 ?x464 ?x12) (ite $x479 ?x530 ?x2175))))))
(let (($x671 (or (< (ite $x507 ?x271 ?x70) (ite $x479 ?x45 ?x432)) (and (= (ite $x507 ?x271 ?x70) (ite $x479 ?x45 ?x432)) $x662))))
(not $x671))))))))))))))))))))))))))))))))))))))))))))))))))))))))))))))))))))))))))))))))))))))))))))))))))))))))))))))))))))))))))))))
(check-sat)
